166	32	4	130	
10	10	10	10

0	0	0	0	0	0	3	1	9	30
1	0	1	1	1	9	1	2
2	1	4	0	5	4	1	3
3	0	5	3	4	2	1	4
4	4	5	6	0	8	1	5
5	3	3	0	2	3	2	29	6
6	4	1	3	0	9	2	28	7
7	3	4	5	0	1	1	8
8	5	6	0	6	10	2	19	10
9	6	0	3	4	8	2	19	10
10	4	3	3	0	6	1	11
11	3	5	0	3	9	1	12
12	0	2	6	5	9	1	13
13	1	5	4	0	3	1	14
14	5	1	4	0	10	1	15
15	1	0	4	5	5	2	27	16
16	4	5	4	0	7	1	17
17	3	6	0	8	4	1	18
18	3	5	3	0	7	1	20
19	6	4	5	0	4	1	20
20	2	0	5	2	1	1	21
21	7	3	4	0	10	1	22
22	6	6	0	4	1	1	23
23	3	0	5	3	1	1	24
24	7	0	1	3	3	1	25
25	6	7	0	5	7	1	26
26	5	4	5	0	1	1	31
27	4	0	2	4	8	1	31
28	4	0	4	5	4	1	31
29	4	0	8	3	9	1	31
30	4	3	0	4	3	1	31
31	0	0	0	0	0	0
